<?xml version = "1.0" encoding="UTF-8" standalone="yes"?>
<CPLEXSolution version="1.2">
 <header
   problemName="inst_10"
   objectiveValue="83.272727272727266"
   solutionTypeValue="1"
   solutionTypeString="basic"
   solutionStatusValue="1"
   solutionStatusString="optimal"
   solutionMethodString="dual"
   primalFeasible="1"
   dualFeasible="1"
   simplexIterations="2"
   writeLevel="1"/>
 <quality
   epRHS="9.9999999999999995e-07"
   epOpt="9.9999999999999995e-07"
   maxPrimalInfeas="0"
   maxDualInfeas="0"
   maxPrimalResidual="2.5757174171303632e-14"
   maxDualResidual="0"
   maxX="51"
   maxPi="2.6363636363636362"
   maxSlack="337"
   maxRedCost="124.36363636363635"
   kappa="26.467778110047846"/>
 <linearConstraints>
  <constraint name="c0" index="0" status="LL" slack="0" dual="-0"/>
  <constraint name="c1" index="1" status="BS" slack="229.36363636363637" dual="-0"/>
  <constraint name="c2" index="2" status="LL" slack="0" dual="2.6363636363636362"/>
  <constraint name="c3" index="3" status="BS" slack="27.636363636363637" dual="-0"/>
  <constraint name="c4" index="4" status="BS" slack="276.72727272727275" dual="-0"/>
  <constraint name="c5" index="5" status="BS" slack="337" dual="-0"/>
  <constraint name="c6" index="6" status="BS" slack="207.18181818181819" dual="-0"/>
  <constraint name="c7" index="7" status="BS" slack="285.09090909090907" dual="-0"/>
  <constraint name="c8" index="8" status="BS" slack="83.181818181818187" dual="-0"/>
  <constraint name="c9" index="9" status="BS" slack="42.36363636363636" dual="-0"/>
  <constraint name="c10" index="10" status="BS" slack="24" dual="-0"/>
 </linearConstraints>
 <variables>
  <variable name="x0" index="0" status="UL" value="1" reducedCost="38.454545454545453"/>
  <variable name="x1" index="1" status="LL" value="0" reducedCost="-2.2727272727272663"/>
  <variable name="x2" index="2" status="BS" value="0.18181818181818182" reducedCost="0"/>
  <variable name="x3" index="3" status="LL" value="0" reducedCost="-124.36363636363635"/>
  <variable name="s0" index="4" status="BS" value="51" reducedCost="0"/>
  <variable name="s1" index="5" status="LL" value="0" reducedCost="0"/>
  <variable name="s2" index="6" status="LL" value="0" reducedCost="-2.6363636363636362"/>
  <variable name="s3" index="7" status="LL" value="0" reducedCost="0"/>
  <variable name="s4" index="8" status="LL" value="0" reducedCost="0"/>
  <variable name="s5" index="9" status="LL" value="0" reducedCost="0"/>
  <variable name="s6" index="10" status="LL" value="0" reducedCost="0"/>
  <variable name="s7" index="11" status="LL" value="0" reducedCost="0"/>
  <variable name="s8" index="12" status="LL" value="0" reducedCost="0"/>
  <variable name="s9" index="13" status="LL" value="0" reducedCost="0"/>
  <variable name="s10" index="14" status="LL" value="0" reducedCost="0"/>
 </variables>
 <objectiveValues>
  <objective index="0" name="" value="83.272727272727266"/>
 </objectiveValues>
</CPLEXSolution>
